
ACE v2.1 

  instance
    name:PyCSP

  Loading variables...

  Loading constraints...

  domains
    types:1  values:648  sizes:[6:108]
  variables
    count:108  arrays:1  degrees:[73:4,74:70,75:34]
  constraints
    count:1930  specific:40  groups:2  arities:[4:1890,6:35,36:3,72:2]
    distribution:[Cardinality:3,ConstraintIntension:1890,LexicographicLE:37]
    intStructures:(1,shared:1889)
    wck:1.13  cpu:1.781  mem:38M429

  Building solver... 

  solver
    guaranteedAC:true
    wck:1.20  cpu:1.812  mem:42M101

  preprocessing
    revisions:(7560,useless=7560)  values:648  unsat:false
    wck:0.031  cpu:1.843  mem:42M101

    run0  dpts:71..107  effs:244  fails:2  wrgs:2  wck:0.00  sols:1

  global
    effs:244  revisions:(51451,useless=51217)
    stop:REACHED_GOAL  wrgs:2  sols:1  sol1Cpu:1.921
    wck:1.30  cpu:1.921  mem:42M624


  Solution 1 in JSON format:
   {
    x: [
     [0, 0, 0, 0, 0, 0, 1, 1, 1, 1, 1, 1, 2, 2, 2, 2, 2, 2, 3, 3, 3, 3, 3, 3, 4, 4, 4, 4, 4, 4, 5, 5, 5, 5, 5, 5],
     [0, 1, 2, 3, 4, 5, 0, 1, 2, 3, 4, 5, 0, 1, 2, 3, 4, 5, 0, 1, 2, 3, 4, 5, 0, 1, 2, 3, 4, 5, 0, 1, 2, 3, 4, 5],
     [0, 1, 2, 3, 4, 5, 1, 0, 3, 2, 5, 4, 2, 3, 4, 5, 1, 0, 3, 2, 5, 4, 0, 1, 4, 5, 0, 1, 2, 3, 5, 4, 1, 0, 3, 2]
    ]
   }

s SATISFIABLE

v <instantiation id='sol1' type='solution'> <list> x[][] </list> <values> 0x6 1x6 2x6 3x6 4x6 5x6 0 1 2 3 4 5 0 1 2 3 4 5 0 1 2 3 4 5 0 1 2 3 4 5 0 1 2 3 4 5 0 1 2 3 4 5 0 1 2 3 4 5 1 0 3 2 5 4 2 3 4 5 1 0 3 2 5 4 0 1 4 5 0 1 2 3 5 4 1 0 3 2 </values> </instantiation>

d WRONG DECISIONS 2
d FOUND SOLUTIONS 1
d INCOMPLETE EXPLORATION

c real time : 1.937
